 H  O                                   
   1.00000000000000     
    21.1971872099999992    0.0000000000000000    0.0000000000000000
     0.0000000000000000   20.9266272099999995    0.0000000000000000
     0.0000000000000000    0.0000000000000000   20.0000000000000000
   H    O 
     2     1
Cartesian
   6.95720000   6.00000000   6.00000000
   5.76001279   6.92662721   6.00000000
   6.00000000   6.00000000   6.00000000
