H O                                     
   1.00000000000000     
     6.2270323974554032   -0.0163927873968318    0.0040454185171384
    -0.0509592618291696    6.2278185213242514    0.0119537734634734
     0.0341617017967277   -0.0197568446743032    5.8268993094045953
    20    10
Direct
  0.4371253682351239  0.2433808704040077  0.0043181401638634
  0.5220872052821197  0.7439848834595789  0.9827312352247526
  0.0274103362134184  0.2384815935767541  0.0058056264599734
  0.9318161576272260  0.7488359499070429  0.9812243001344662
  0.2263486190987941  0.3607018885493740  0.3436432798740194
  0.7328252217429474  0.6266491831157983  0.6434017856532785
  0.2297370912658141  0.1139268863183508  0.3388631159547655
  0.7294641649344615  0.8734288990577677  0.6481743223057298
  0.2344038223726522  0.6699141641257942  0.6191094875842256
  0.7248174597569740  0.3174283587633657  0.3679238136349658
  0.6604563061858925  0.2463820505974746  0.8653909080964086
  0.2987695882651243  0.7409562274185824  0.1216840946760095
  0.3497664630237655  0.4523602364140202  0.6926486181617374
  0.6094748616203074  0.5349977719139671  0.2943952337232009
  0.3554776796063101  0.0366623377682139  0.6939900065367549
  0.6037497254247717  0.9506774350298097  0.2930336250445976
  0.1094460684556261  0.0268986565873535  0.6978020915288985
  0.8497810641513897  0.9604526679049370  0.2892230143718022
  0.0221490359800705  0.3561262775547866  0.7701404131449999
  0.9370642250482468  0.6312026654923348  0.2168919093384802
  0.2299421899652652  0.2386446884752011  0.2340013279547720
  0.7292077607755308  0.7487104656283528  0.7530359278726776
  0.2245381309586680  0.5109333461610743  0.6110556112434971
  0.7346999447986390  0.4764081793234253  0.3759825134060344
  0.2336447161950794  0.9602667454078624  0.6194586650291091
  0.7255782650095581  0.0270907570421290  0.3675534034142349
  0.9506341064672225  0.2383413563639687  0.8572501957482317
  0.0085688938473227  0.7490010027193690  0.1297901632232094
  0.5019450759668351  0.2459143944779663  0.8490212957142398
  0.4572804517248374  0.7414200604413612  0.1380358747810569
