H O
1.0
  8.7223970000 0.0000000000 -3.1208890000 
  0.0000000000 7.4903640000 0.0000000000 
  0.0000000000 0.0000000000 10.3217530000 
56 28
Direct
  0.3433870000 0.6439070000 0.2995050000 
  0.2477030000 0.4925390000 0.3343290000 
  0.1208210000 0.7159080000 0.1606500000 
  0.4707670000 0.9109100000 0.3499100000 
  0.5688800000 0.7497390000 0.4413980000 
  -0.0396450000 0.7528240000 0.0502080000 
  0.2317350000 0.4511680000 0.0951080000 
  0.3130960000 0.4901570000 0.5784070000 
  0.1782290000 0.3572010000 0.5167960000 
  0.2974000000 0.3643430000 -0.0146230000 
  0.0797290000 0.0142030000 0.1978620000 
  0.3184880000 0.1381530000 0.2492310000 
  0.3811580000 0.0489320000 0.1434190000 
  0.0461390000 0.2054080000 0.2507640000 
  0.1566130000 0.1439070000 0.7004950000 
  0.2522970000 -0.0074610000 0.6656710000 
  0.3791790000 0.2159080000 0.8393500000 
  0.0292330000 0.4109100000 0.6500900000 
  -0.0688800000 0.2497390000 0.5586020000 
  0.5396450000 0.2528240000 0.9497920000 
  0.2682650000 0.9511680000 0.9048920000 
  0.1869040000 0.9901570000 0.4215930000 
  0.3217710000 0.8572010000 0.4832040000 
  0.2026000000 0.8643430000 1.0146230000 
  0.4202710000 0.5142030000 0.8021380000 
  0.1815120000 0.6381530000 0.7507690000 
  0.1188420000 0.5489320000 0.8565810000 
  0.4538610000 0.7054080000 0.7492360000 
  0.6566130000 0.3560930000 0.7004950000 
  0.7522970000 0.5074610000 0.6656710000 
  0.8791790000 0.2840920000 0.8393500000 
  0.5292330000 0.0890900000 0.6500900000 
  0.4311200000 0.2502610000 0.5586020000 
  1.0396450000 0.2471760000 0.9497920000 
  0.7682650000 0.5488320000 0.9048920000 
  0.6869040000 0.5098430000 0.4215930000 
  0.8217720000 0.6427990000 0.4832040000 
  0.7026000000 0.6356570000 1.0146230000 
  0.9202710000 0.9857970000 0.8021380000 
  0.6815120000 0.8618480000 0.7507690000 
  0.6188420000 0.9510680000 0.8565810000 
  0.9538610000 0.7945920000 0.7492360000 
  0.8433870000 0.8560930000 0.2995050000 
  0.7477030000 1.0074610000 0.3343290000 
  0.6208210000 0.7840920000 0.1606500000 
  0.9707670000 0.5890900000 0.3499100000 
  1.0688800000 0.7502610000 0.4413980000 
  0.4603550000 0.7471760000 0.0502070000 
  0.7317350000 0.0488320000 0.0951080000 
  0.8130960000 0.0098430000 0.5784070000 
  0.6782280000 0.1427990000 0.5167960000 
  0.7974000000 0.1356570000 -0.0146230000 
  0.5797290000 0.4857970000 0.1978620000 
  0.8184880000 0.3618480000 0.2492310000 
  0.8811580000 0.4510680000 0.1434190000 
  0.5461390000 0.2945920000 0.2507640000 
  0.2578110000 0.5594060000 0.2548620000 
  0.4646290000 0.8020160000 0.4021910000 
  0.0609100000 0.8098980000 0.0969580000 
  0.2725670000 0.4014010000 0.5028720000 
  0.2018140000 0.4018270000 0.0005220000 
  0.4160680000 0.1075450000 0.2351890000 
  0.1244450000 0.1101530000 0.2656190000 
  0.2421890000 0.0594060000 0.7451380000 
  0.0353710000 0.3020160000 0.5978090000 
  0.4390900000 0.3098980000 0.9030420000 
  0.2274330000 0.9014000000 0.4971280000 
  0.2981860000 0.9018270000 0.9994780000 
  0.0839320000 0.6075450000 0.7648110000 
  0.3755550000 0.6101530000 0.7343810000 
  0.7421890000 0.4405940000 0.7451380000 
  0.5353710000 0.1979840000 0.5978090000 
  0.9390900000 0.1901020000 0.9030420000 
  0.7274330000 0.5985990000 0.4971280000 
  0.7981860000 0.5981730000 0.9994780000 
  0.5839320000 0.8924550000 0.7648110000 
  0.8755550000 0.8898470000 0.7343810000 
  0.7578110000 0.9405940000 0.2548620000 
  0.9646290000 0.6979840000 0.4021910000 
  0.5609100000 0.6901020000 0.0969580000 
  0.7725670000 0.0985990000 0.5028720000 
  0.7018140000 0.0981730000 0.0005220000 
  0.9160680000 0.3924550000 0.2351890000 
  0.6244450000 0.3898470000 0.2656190000 
