super cell
        1.0000000000
  15.356185999999999   0.000000000000000   0.000000000000000
   7.678092000000000  13.298845999999999   0.000000000000000
   0.000000000000000   0.000000000000000  14.469134000000000
  192   96
 Direct
   0.000003500000000   0.167359000000000   0.099899500000000
   0.500003500000000   0.167359000000000   0.099899500000000
   0.000003500000000   0.667359000000000   0.099899500000000
   0.500003500000000   0.667359000000000   0.099899500000000
   0.000003500000000   0.167359000000000   0.599899500000000
   0.500003500000000   0.167359000000000   0.599899500000000
   0.000003500000000   0.667359000000000   0.599899500000000
   0.500003500000000   0.667359000000000   0.599899500000000
   0.332626000000000   0.000005000000000   0.099890000000000
   0.832626000000000   0.000005000000000   0.099890000000000
   0.332626000000000   0.500005000000000   0.099890000000000
   0.832626000000000   0.500005000000000   0.099890000000000
   0.332626000000000   0.000005000000000   0.599890000000000
   0.832626000000000   0.000005000000000   0.599890000000000
   0.332626000000000   0.500005000000000   0.599890000000000
   0.832626000000000   0.500005000000000   0.599890000000000
   0.167357000000000   0.332630500000000   0.099895500000000
   0.667357000000000   0.332630500000000   0.099895500000000
   0.167357000000000   0.832630500000000   0.099895500000000
   0.667357000000000   0.832630500000000   0.099895500000000
   0.167357000000000   0.332630500000000   0.599895500000000
   0.667357000000000   0.332630500000000   0.599895500000000
   0.167357000000000   0.832630500000000   0.599895500000000
   0.667357000000000   0.832630500000000   0.599895500000000
   0.167380000000000   0.499988000000000   0.349893000000000
   0.667380000000000   0.499988000000000   0.349893000000000
   0.167380000000000   0.999988000000000   0.349893000000000
   0.667380000000000   0.999988000000000   0.349893000000000
   0.167380000000000   0.499988000000000   0.849893000000000
   0.667380000000000   0.499988000000000   0.849893000000000
   0.167380000000000   0.999988000000000   0.849893000000000
   0.667380000000000   0.999988000000000   0.849893000000000
   0.499990000000000   0.332619500000000   0.349900000000000
   0.999990000000000   0.332619500000000   0.349900000000000
   0.499990000000000   0.832619500000000   0.349900000000000
   0.999990000000000   0.832619500000000   0.349900000000000
   0.499990000000000   0.332619500000000   0.849900000000000
   0.999990000000000   0.332619500000000   0.849900000000000
   0.499990000000000   0.832619500000000   0.849900000000000
   0.999990000000000   0.832619500000000   0.849900000000000
   0.332620000000000   0.167377500000000   0.349899500000000
   0.832620000000000   0.167377500000000   0.349899500000000
   0.332620000000000   0.667377500000000   0.349899500000000
   0.832620000000000   0.667377500000000   0.349899500000000
   0.332620000000000   0.167377500000000   0.849899500000000
   0.832620000000000   0.167377500000000   0.849899500000000
   0.332620000000000   0.667377500000000   0.849899500000000
   0.832620000000000   0.667377500000000   0.849899500000000
   0.272230500000000   0.000003000000000   0.009792000000000
   0.772230500000000   0.000003000000000   0.009792000000000
   0.272230500000000   0.500003000000000   0.009792000000000
   0.772230500000000   0.500003000000000   0.009792000000000
   0.272230500000000   0.000003000000000   0.509792000000000
   0.772230500000000   0.000003000000000   0.509792000000000
   0.272230500000000   0.500003000000000   0.509792000000000
   0.772230500000000   0.500003000000000   0.509792000000000
  -0.000005500000000   0.227760000000000   0.009802500000000
   0.499994500000000   0.227760000000000   0.009802500000000
  -0.000005500000000   0.727760000000000   0.009802500000000
   0.499994500000000   0.727760000000000   0.009802500000000
  -0.000005500000000   0.227760000000000   0.509802500000000
   0.499994500000000   0.227760000000000   0.509802500000000
  -0.000005500000000   0.727760000000000   0.509802500000000
   0.499994500000000   0.727760000000000   0.509802500000000
   0.227752500000000   0.272240000000000   0.009797000000000
   0.727752500000000   0.272240000000000   0.009797000000000
   0.227752500000000   0.772240000000000   0.009797000000000
   0.727752500000000   0.772240000000000   0.009797000000000
   0.227752500000000   0.272240000000000   0.509797000000000
   0.727752500000000   0.272240000000000   0.509797000000000
   0.227752500000000   0.772240000000000   0.509797000000000
   0.727752500000000   0.772240000000000   0.509797000000000
   0.227771500000000   0.499990000000000   0.259792000000000
   0.727771500000000   0.499990000000000   0.259792000000000
   0.227771500000000   0.999990000000000   0.259792000000000
   0.727771500000000   0.999990000000000   0.259792000000000
   0.227771500000000   0.499990000000000   0.759792000000000
   0.727771500000000   0.499990000000000   0.759792000000000
   0.227771500000000   0.999990000000000   0.759792000000000
   0.727771500000000   0.999990000000000   0.759792000000000
   0.499999000000000   0.272223000000000   0.259800000000000
   0.999999000000000   0.272223000000000   0.259800000000000
   0.499999000000000   0.772223000000000   0.259800000000000
   0.999999000000000   0.772223000000000   0.259800000000000
   0.499999000000000   0.272223000000000   0.759800000000000
   0.999999000000000   0.272223000000000   0.759800000000000
   0.499999000000000   0.772223000000000   0.759800000000000
   0.999999000000000   0.772223000000000   0.759800000000000
   0.272230500000000   0.227762000000000   0.259796000000000
   0.772230500000000   0.227762000000000   0.259796000000000
   0.272230500000000   0.727762000000000   0.259796000000000
   0.772230500000000   0.727762000000000   0.259796000000000
   0.272230500000000   0.227762000000000   0.759796000000000
   0.772230500000000   0.227762000000000   0.759796000000000
   0.272230500000000   0.727762000000000   0.759796000000000
   0.772230500000000   0.727762000000000   0.759796000000000
   0.166120000000000   0.439740500000000   0.492243000000000
   0.666120000000000   0.439740500000000   0.492243000000000
   0.166120000000000   0.939740500000000   0.492243000000000
   0.666120000000000   0.939740500000000   0.492243000000000
   0.166120000000000   0.439740500000000   0.992243000000000
   0.666120000000000   0.439740500000000   0.992243000000000
   0.166120000000000   0.939740500000000   0.992243000000000
   0.666120000000000   0.939740500000000   0.992243000000000
   0.105865500000000   0.560253500000000   0.492240500000000
   0.605865500000000   0.560253500000000   0.492240500000000
   0.105865500000000   1.060253500000000   0.492240500000000
   0.605865500000000   1.060253500000000   0.492240500000000
   0.105865500000000   0.560253500000000   0.992240500000000
   0.605865500000000   0.560253500000000   0.992240500000000
   0.105865500000000   1.060253500000000   0.992240500000000
   0.605865500000000   1.060253500000000   0.992240500000000
   0.439731000000000   0.394132500000000   0.492244500000000
   0.939731000000000   0.394132500000000   0.492244500000000
   0.439731000000000   0.894132500000000   0.492244500000000
   0.939731000000000   0.894132500000000   0.492244500000000
   0.439731000000000   0.394132500000000   0.992244500000000
   0.939731000000000   0.394132500000000   0.992244500000000
   0.439731000000000   0.894132500000000   0.992244500000000
   0.939731000000000   0.894132500000000   0.992244500000000
   0.394124000000000   0.166127500000000   0.492249000000000
   0.894124000000000   0.166127500000000   0.492249000000000
   0.394124000000000   0.666127500000000   0.492249000000000
   0.894124000000000   0.666127500000000   0.492249000000000
   0.394124000000000   0.166127500000000   0.992249000000000
   0.894124000000000   0.166127500000000   0.992249000000000
   0.394124000000000   0.666127500000000   0.992249000000000
   0.894124000000000   0.666127500000000   0.992249000000000
   0.333865500000000   0.105874000000000   0.492243000000000
   0.833865500000000   0.105874000000000   0.492243000000000
   0.333865500000000   0.605874000000000   0.492243000000000
   0.833865500000000   0.605874000000000   0.492243000000000
   0.333865500000000   0.105874000000000   0.992243000000000
   0.833865500000000   0.105874000000000   0.992243000000000
   0.333865500000000   0.605874000000000   0.992243000000000
   0.833865500000000   0.605874000000000   0.992243000000000
   0.060263000000000   0.105851500000000   0.242248500000000
   0.560263000000000   0.105851500000000   0.242248500000000
   0.060263000000000   0.605851500000000   0.242248500000000
   0.560263000000000   0.605851500000000   0.242248500000000
   0.060263000000000   0.105851500000000   0.742248500000000
   0.560263000000000   0.105851500000000   0.742248500000000
   0.060263000000000   0.605851500000000   0.742248500000000
   0.560263000000000   0.605851500000000   0.742248500000000
   0.333881000000000   0.560253000000000   0.242244000000000
   0.833881000000000   0.560253000000000   0.242244000000000
   0.333881000000000   1.060253000000000   0.242244000000000
   0.833881000000000   1.060253000000000   0.242244000000000
   0.333881000000000   0.560253000000000   0.742244000000000
   0.833881000000000   0.560253000000000   0.742244000000000
   0.333881000000000   1.060253000000000   0.742244000000000
   0.833881000000000   1.060253000000000   0.742244000000000
   0.394136000000000   0.439738500000000   0.242240000000000
   0.894136000000000   0.439738500000000   0.242240000000000
   0.394136000000000   0.939738500000000   0.242240000000000
   0.894136000000000   0.939738500000000   0.242240000000000
   0.394136000000000   0.439738500000000   0.742240000000000
   0.894136000000000   0.439738500000000   0.742240000000000
   0.394136000000000   0.939738500000000   0.742240000000000
   0.894136000000000   0.939738500000000   0.742240000000000
   0.105861000000000   0.333871500000000   0.242247500000000
   0.605861000000000   0.333871500000000   0.242247500000000
   0.105861000000000   0.833871500000000   0.242247500000000
   0.605861000000000   0.833871500000000   0.242247500000000
   0.105861000000000   0.333871500000000   0.742247500000000
   0.605861000000000   0.333871500000000   0.742247500000000
   0.105861000000000   0.833871500000000   0.742247500000000
   0.605861000000000   0.833871500000000   0.742247500000000
   0.166120000000000   0.394126000000000   0.242243000000000
   0.666120000000000   0.394126000000000   0.242243000000000
   0.166120000000000   0.894126000000000   0.242243000000000
   0.666120000000000   0.894126000000000   0.242243000000000
   0.166120000000000   0.394126000000000   0.742243000000000
   0.666120000000000   0.394126000000000   0.742243000000000
   0.166120000000000   0.894126000000000   0.742243000000000
   0.666120000000000   0.894126000000000   0.742243000000000
  -0.060251500000000   0.166111000000000   0.242249500000000
   0.439748500000000   0.166111000000000   0.242249500000000
  -0.060251500000000   0.666111000000000   0.242249500000000
   0.439748500000000   0.666111000000000   0.242249500000000
  -0.060251500000000   0.166111000000000   0.742249500000000
   0.439748500000000   0.166111000000000   0.742249500000000
  -0.060251500000000   0.666111000000000   0.742249500000000
   0.439748500000000   0.666111000000000   0.742249500000000
   0.560243000000000   0.333875000000000   0.492245500000000
   1.060243000000000   0.333875000000000   0.492245500000000
   0.560243000000000   0.833875000000000   0.492245500000000
   1.060243000000000   0.833875000000000   0.492245500000000
   0.560243000000000   0.333875000000000   0.992245500000000
   1.060243000000000   0.333875000000000   0.992245500000000
   0.560243000000000   0.833875000000000   0.992245500000000
   1.060243000000000   0.833875000000000   0.992245500000000
   0.000004500000000   0.165665000000000   0.030808000000000
   0.500004500000000   0.165665000000000   0.030808000000000
   0.000004500000000   0.665665000000000   0.030808000000000
   0.500004500000000   0.665665000000000   0.030808000000000
   0.000004500000000   0.165665000000000   0.530808000000000
   0.500004500000000   0.165665000000000   0.530808000000000
   0.000004500000000   0.665665000000000   0.530808000000000
   0.500004500000000   0.665665000000000   0.530808000000000
   0.334318500000000   0.000006000000000   0.030797500000000
   0.834318500000000   0.000006000000000   0.030797500000000
   0.334318500000000   0.500006000000000   0.030797500000000
   0.834318500000000   0.500006000000000   0.030797500000000
   0.334318500000000   0.000006000000000   0.530797500000000
   0.834318500000000   0.000006000000000   0.530797500000000
   0.334318500000000   0.500006000000000   0.530797500000000
   0.834318500000000   0.500006000000000   0.530797500000000
   0.165663000000000   0.334330000000000   0.030804000000000
   0.665663000000000   0.334330000000000   0.030804000000000
   0.165663000000000   0.834330000000000   0.030804000000000
   0.665663000000000   0.834330000000000   0.030804000000000
   0.165663000000000   0.334330000000000   0.530804000000000
   0.665663000000000   0.334330000000000   0.530804000000000
   0.165663000000000   0.834330000000000   0.530804000000000
   0.665663000000000   0.834330000000000   0.530804000000000
   0.165685000000000   0.499986000000000   0.280800500000000
   0.665685000000000   0.499986000000000   0.280800500000000
   0.165685000000000   0.999986000000000   0.280800500000000
   0.665685000000000   0.999986000000000   0.280800500000000
   0.165685000000000   0.499986000000000   0.780800500000000
   0.665685000000000   0.499986000000000   0.780800500000000
   0.165685000000000   0.999986000000000   0.780800500000000
   0.665685000000000   0.999986000000000   0.780800500000000
   0.334318500000000   0.165674000000000   0.280808000000000
   0.834318500000000   0.165674000000000   0.280808000000000
   0.334318500000000   0.665674000000000   0.280808000000000
   0.834318500000000   0.665674000000000   0.280808000000000
   0.334318500000000   0.165674000000000   0.780808000000000
   0.834318500000000   0.165674000000000   0.780808000000000
   0.334318500000000   0.665674000000000   0.780808000000000
   0.834318500000000   0.665674000000000   0.780808000000000
   0.167838000000000   0.499996000000000   0.468373000000000
   0.667838000000000   0.499996000000000   0.468373000000000
   0.167838000000000   0.999996000000000   0.468373000000000
   0.667838000000000   0.999996000000000   0.468373000000000
   0.167838000000000   0.499996000000000   0.968373000000000
   0.667838000000000   0.499996000000000   0.968373000000000
   0.167838000000000   0.999996000000000   0.968373000000000
   0.667838000000000   0.999996000000000   0.968373000000000
   0.332147000000000   0.167851500000000   0.468384000000000
   0.832147000000000   0.167851500000000   0.468384000000000
   0.332147000000000   0.667851500000000   0.468384000000000
   0.832147000000000   0.667851500000000   0.468384000000000
   0.332147000000000   0.167851500000000   0.968384000000000
   0.832147000000000   0.167851500000000   0.968384000000000
   0.332147000000000   0.667851500000000   0.968384000000000
   0.832147000000000   0.667851500000000   0.968384000000000
   0.000006000000000   0.167827500000000   0.218385500000000
   0.500006000000000   0.167827500000000   0.218385500000000
   0.000006000000000   0.667827500000000   0.218385500000000
   0.500006000000000   0.667827500000000   0.218385500000000
   0.000006000000000   0.167827500000000   0.718385500000000
   0.500006000000000   0.167827500000000   0.718385500000000
   0.000006000000000   0.667827500000000   0.718385500000000
   0.500006000000000   0.667827500000000   0.718385500000000
   0.332166500000000   0.499997500000000   0.218370000000000
   0.832166500000000   0.499997500000000   0.218370000000000
   0.332166500000000   0.999997500000000   0.218370000000000
   0.832166500000000   0.999997500000000   0.218370000000000
   0.332166500000000   0.499997500000000   0.718370000000000
   0.832166500000000   0.499997500000000   0.718370000000000
   0.332166500000000   0.999997500000000   0.718370000000000
   0.832166500000000   0.999997500000000   0.718370000000000
   0.167835000000000   0.332152000000000   0.218380000000000
   0.667835000000000   0.332152000000000   0.218380000000000
   0.167835000000000   0.832152000000000   0.218380000000000
   0.667835000000000   0.832152000000000   0.218380000000000
   0.167835000000000   0.332152000000000   0.718380000000000
   0.667835000000000   0.332152000000000   0.718380000000000
   0.167835000000000   0.832152000000000   0.718380000000000
   0.667835000000000   0.832152000000000   0.718380000000000
   0.499989500000000   0.334317000000000   0.280808500000000
   0.999989500000000   0.334317000000000   0.280808500000000
   0.499989500000000   0.834317000000000   0.280808500000000
   0.999989500000000   0.834317000000000   0.280808500000000
   0.499989500000000   0.334317000000000   0.780808500000000
   0.999989500000000   0.334317000000000   0.780808500000000
   0.499989500000000   0.834317000000000   0.780808500000000
   0.999989500000000   0.834317000000000   0.780808500000000
   0.499987000000000   0.332153000000000   0.471149505000000
   0.999987000000000   0.332153000000000   0.471149505000000
   0.499987000000000   0.832153000000000   0.471149505000000
   0.999987000000000   0.832153000000000   0.471149505000000
   0.499987000000000   0.332153000000000   0.971149505000000
   0.999987000000000   0.332153000000000   0.971149505000000
   0.499987000000000   0.832153000000000   0.971149505000000
   0.999987000000000   0.832153000000000   0.971149505000000
