 H  O 
 1.0000000000000000
 4.84946537 0.0 0.0
 0.0 4.84946537 0.0
 0.0 0.0 7.05651379 
  16   8
Cartesian
  6.7815167500000006  7.5630335000000004  6.9666195000000002
  9.2062492500000008  9.9877660000000006 10.4948765000000002
  6.0000000000000009  9.2062492499999991  8.7307480000000002
  9.9877660000000006  6.7815167499999998 12.2590050000000002
  9.2062492500000008  7.5630335000000004  7.7641285000000000
  9.2062492500000008  6.0000000000000000  7.7641285000000000
  9.9877660000000006  9.2062492499999991  6.0000000000000000
  6.0000000000000009  6.7815167499999998  9.5282570000000000
  8.4247325000000011  9.2062492499999991  6.0000000000000000
  8.4247325000000011  6.7815167499999998 12.2590050000000002
  6.7815167500000006  6.0000000000000000  6.9666195000000002
  7.5630335000000004  9.2062492499999991  8.7307480000000002
  7.5630335000000004  6.7815167499999998  9.5282570000000000
  9.2062492500000008  8.4247325000000011 10.4948765000000002
  6.7815167500000006  9.9877660000000006 11.2923855000000000
  6.7815167500000006  8.4247325000000011 11.2923855000000000
  6.7815167500000006  6.7815167499999998  6.3680015000000001
  6.7815167500000006  9.2062492499999991  8.1321300000000001
  9.2062492500000008  6.7815167499999998 11.6603870000000001
  9.2062492500000008  6.7815167499999998  8.3627465000000001
  9.2062492500000008  9.2062492499999991  6.5986180000000001
  6.7815167500000006  6.7815167499999998 10.1268750000000001
  9.2062492500000008  9.2062492499999991  9.8962585000000001
  6.7815167500000006  9.2062492499999991 11.8910035000000001
