H O                                     
   1.00000000000000     
     3.1167530443944949    5.3761745952595694   -0.0204149081686747
    -3.0998500347949216    5.3866022682842472   -0.0293056841941682
    -0.0087214532495416    0.0276468375045884    5.9428093147058343
    12     6
Direct
  0.9174182150804928  0.1318558269267445  0.1950481747149136
  0.0036720979434577  0.9399164566265364  0.5283985023930514
  0.1094406339310997  0.0262413296267588  0.8617403185566139
  0.7129890622874933  0.0583421054668458  0.2606488190595944
  0.2814174406082114  0.7353674327769991  0.5940235567081172
  0.0361514583519138  0.3040245351406234  0.9273634976553200
  0.6547090098016021  0.4256693960498537  0.4314566443957404
  0.9722231916499646  0.6773392907884199  0.7647700068625337
  0.4034131358347107  0.9946861265582808  0.0981690221140879
  0.5730319835916708  0.7893306044366578  0.2802423814533805
  0.6903021839055404  0.5953789159458464  0.6135598520589951
  0.7670120470606219  0.7127292233406267  0.9468918825897781
  0.1090076922341698  0.1319086937308709  0.9892341235594616
  0.8121994595927635  0.1313119504912416  0.3225214399846704
  0.1093262958763062  0.8347336316406275  0.6559110740233568
  0.5780067254383119  0.5990632106467652  0.4909295497283178
  0.8755525807923762  0.6005326415603316  0.8242228997491368
  0.5768267860193259  0.8978786282459675  0.1576082543929021
