H O
1.0
     7.7817801603022598    0.1246969540912091    0.1590329264899646
     2.7660103283375648    7.2746714077313941    0.1590329354147957
     2.8239626713698587    1.9810340738602807    7.0171940989544641
32 16
Direct
  0.3267732012196201  0.8143038673813920  0.8869668263222142
  0.4538777053407523  0.9681665658008156  0.7589371955710460
  0.1664189933703033  0.1085393393011783  0.6792943660633546
  0.5159200399071943  0.7211123901958476  0.6550490567214047
  0.7596464436862322  0.4513350956205688  0.9794652888733071
  0.6734562961138825  0.1707476473813579  0.1089913331666898
  0.9890630136129168  0.2797250516927055  0.7378684890414060
  0.6978944629345808  0.4457853308080580  0.8120044404274246
  0.7797250280346449  0.4890630668689191  0.2378684890441700
  0.6085393256658277  0.6664189327626067  0.1792943660534354
  0.8579268950580138  0.7786466428688805  0.9767122459841655
  0.7309455664065317  0.9899205188587846  0.2800099053285688
  0.4681665093279234  0.9538778008180779  0.2589371955657597
  0.4821497701334408  0.2868379348133108  0.3449816776440884
  0.9807005372262345  0.7609848834138601  0.4480644889227515
  0.1085974019852135  0.6774536424304048  0.1653619445120819
  0.8140472956977037  0.6966787120536400  0.4414882447746983
  0.1774537020360729  0.6085973565099668  0.6653619445457829
  0.3143038256240746  0.8267732751975994  0.3869668263198978
  0.0459314428258604  0.8094465320794648  0.6879675196725524
  0.2609848868127839  0.4807005886890828  0.9480644889105159
  0.3094465108188467  0.5459314692658449  0.1879675197248555
  0.4899204661402866  0.2309456564103406  0.7800099053094054
  0.6707476891419298  0.1734562221466749  0.6089913331565504
  0.7868379769297223  0.9821497896985193  0.8449816775953451
  0.1966786093296169  0.3140472925565648  0.9414882447776471
  0.9513350274098802  0.2596464180265801  0.4794652888951136
  0.2786466418670366  0.3579268893126860  0.4767122459551754
  0.9457853572466640  0.1978944416956555  0.3120044404621204
  0.2211123480642232  0.0159200203600997  0.1550490567686629
  0.0549717823362939  0.0434182523125560  0.0696266113647722
  0.5434181922720714  0.5549718423927089  0.5696266113503269
  0.3720276298917963  0.8980566602373965  0.7548082158895950
  0.7691494952448364  0.3634749078616249  0.9094299974921357
  0.7389628330518332  0.5899409458462239  0.1256686759524074
  0.6192723086047359  0.0898448582552103  0.2389050113961570
  0.9093054613883381  0.7729361624311311  0.3602623181276357
  0.1270334018119939  0.7395846096488602  0.5865772149713288
  0.2395845156852393  0.6270334378599727  0.0865772149538210
  0.5898448791026336  0.1192723803074721  0.7389050114244934
  0.2729362340538460  0.4093055402744552  0.8602623181340661
  0.0899410246466851  0.2389629047760348  0.6256686759439591
  0.8634749439326040  0.2691494012957248  0.4094299974402092
  0.3980566393899590  0.8720275581507618  0.2548082158965796
  0.1074132695538457  0.1126692610348110  0.1096935934691168
  0.3916342869768017  0.4039372654686496  0.3818654829436488
  0.9039373140123111  0.8916342384104242  0.8818654829649225
  0.6126692124051879  0.6074133181179779  0.6096935935293709
