H O
1.0
  6.7849030000 0.0000000000 0.0000000000 
  0.0000000000 6.7849030000 0.0000000000 
  0.0000000000 0.0000000000 6.8079160000 
24 12
Direct
  -0.0068300000 0.3400090000 0.1901610000 
  0.1139810000 0.1644120000 0.2833300000 
  0.3092700000 0.3703460000 0.1062840000 
  0.1599910000 0.4931700000 0.4401610000 
  0.3355880000 0.6139810000 0.5333300000 
  0.1296540000 0.8092700000 0.3562840000 
  0.8400090000 0.5068300000 -0.0598390000 
  0.6644120000 0.3860190000 0.0333300000 
  0.8703460000 0.1907300000 0.8562840000 
  0.5068300000 0.8400090000 1.0598390000 
  0.3860190000 0.6644120000 0.9666700000 
  0.1907300000 0.8703460000 0.1437160000 
  0.4931700000 0.1599910000 0.5598390000 
  0.6139810000 0.3355880000 0.4666700000 
  0.8092700000 0.1296540000 0.6437160000 
  0.3703460000 0.3092700000 -0.1062840000 
  0.6599910000 1.0068300000 0.3098390000 
  0.8355880000 0.8860190000 0.2166700000 
  0.6296540000 0.6907300000 0.3937160000 
  1.0068300000 0.6599910000 0.6901610000 
  0.8860190000 0.8355880000 0.7833300000 
  0.6907300000 0.6296540000 0.6062840000 
  0.3400090000 -0.0068300000 0.8098390000 
  0.1644120000 0.1139810000 0.7166700000 
  0.1140880000 0.3100300000 0.2673660000 
  0.1899700000 0.6140880000 0.5173660000 
  0.8100300000 0.3859120000 0.0173650000 
  0.3859120000 0.8100300000 0.9826340000 
  0.6140880000 0.1899700000 0.4826340000 
  0.6899700000 0.8859120000 0.2326340000 
  0.8859120000 0.6899700000 0.7673660000 
  0.3100300000 0.1140880000 0.7326340000 
  0.4042560000 0.4042560000 0.0000000000 
  0.0957440000 0.9042560000 0.2500000000 
  0.9042560000 0.0957440000 0.7500000000 
  0.5957440000 0.5957440000 0.5000000000 
