 H  O 
 1.0000000000000000
    21.1971872099999992    0.0000000000000000    0.0000000000000000
     0.0000000000000000   20.9266272099999995    0.0000000000000000
     0.0000000000000000    0.0000000000000000   20.0000000000000000
   2   1
Cartesian
  7.1971872099999992  6.0000000000000000  6.0000000000000000
  6.0000000000000000  6.9266272099999995  6.0000000000000000
  6.2399872099999989  6.0000000000000000  6.0000000000000000
