super cell
        4.0000000000
   1.000000000000000   0.000000000000000   1.000000000000000
   1.000000000000000   1.000000000000000   0.000000000000000
   0.000000000000000   1.000000000000000   1.000000000000000
    8
 Direct
   0.000000000000000   0.000000000000000   0.000000000000000
   0.500000000000000   0.000000000000000   0.000000000000000
   0.000000000000000   0.500000000000000   0.000000000000000
   0.500000000000000   0.500000000000000   0.000000000000000
   0.000000000000000   0.000000000000000   0.500000000000000
   0.500000000000000   0.000000000000000   0.500000000000000
   0.000000000000000   0.500000000000000   0.500000000000000
   0.500000000000000   0.500000000000000   0.500000000000000
