super cell
        4.0000000000
   2.000000000000000   0.000000000000000   2.000000000000000
   2.000000000000000   2.000000000000000   0.000000000000000
   0.000000000000000   2.000000000000000   2.000000000000000
   64
 Direct
   0.000000000000000   0.000000000000000   0.000000000000000
   0.250000000000000   0.000000000000000   0.000000000000000
   0.500000000000000   0.000000000000000   0.000000000000000
   0.750000000000000   0.000000000000000   0.000000000000000
   0.000000000000000   0.250000000000000   0.000000000000000
   0.250000000000000   0.250000000000000   0.000000000000000
   0.500000000000000   0.250000000000000   0.000000000000000
   0.750000000000000   0.250000000000000   0.000000000000000
   0.000000000000000   0.500000000000000   0.000000000000000
   0.250000000000000   0.500000000000000   0.000000000000000
   0.500000000000000   0.500000000000000   0.000000000000000
   0.750000000000000   0.500000000000000   0.000000000000000
   0.000000000000000   0.750000000000000   0.000000000000000
   0.250000000000000   0.750000000000000   0.000000000000000
   0.500000000000000   0.750000000000000   0.000000000000000
   0.750000000000000   0.750000000000000   0.000000000000000
   0.000000000000000   0.000000000000000   0.250000000000000
   0.250000000000000   0.000000000000000   0.250000000000000
   0.500000000000000   0.000000000000000   0.250000000000000
   0.750000000000000   0.000000000000000   0.250000000000000
   0.000000000000000   0.250000000000000   0.250000000000000
   0.250000000000000   0.250000000000000   0.250000000000000
   0.500000000000000   0.250000000000000   0.250000000000000
   0.750000000000000   0.250000000000000   0.250000000000000
   0.000000000000000   0.500000000000000   0.250000000000000
   0.250000000000000   0.500000000000000   0.250000000000000
   0.500000000000000   0.500000000000000   0.250000000000000
   0.750000000000000   0.500000000000000   0.250000000000000
   0.000000000000000   0.750000000000000   0.250000000000000
   0.250000000000000   0.750000000000000   0.250000000000000
   0.500000000000000   0.750000000000000   0.250000000000000
   0.750000000000000   0.750000000000000   0.250000000000000
   0.000000000000000   0.000000000000000   0.500000000000000
   0.250000000000000   0.000000000000000   0.500000000000000
   0.500000000000000   0.000000000000000   0.500000000000000
   0.750000000000000   0.000000000000000   0.500000000000000
   0.000000000000000   0.250000000000000   0.500000000000000
   0.250000000000000   0.250000000000000   0.500000000000000
   0.500000000000000   0.250000000000000   0.500000000000000
   0.750000000000000   0.250000000000000   0.500000000000000
   0.000000000000000   0.500000000000000   0.500000000000000
   0.250000000000000   0.500000000000000   0.500000000000000
   0.500000000000000   0.500000000000000   0.500000000000000
   0.750000000000000   0.500000000000000   0.500000000000000
   0.000000000000000   0.750000000000000   0.500000000000000
   0.250000000000000   0.750000000000000   0.500000000000000
   0.500000000000000   0.750000000000000   0.500000000000000
   0.750000000000000   0.750000000000000   0.500000000000000
   0.000000000000000   0.000000000000000   0.750000000000000
   0.250000000000000   0.000000000000000   0.750000000000000
   0.500000000000000   0.000000000000000   0.750000000000000
   0.750000000000000   0.000000000000000   0.750000000000000
   0.000000000000000   0.250000000000000   0.750000000000000
   0.250000000000000   0.250000000000000   0.750000000000000
   0.500000000000000   0.250000000000000   0.750000000000000
   0.750000000000000   0.250000000000000   0.750000000000000
   0.000000000000000   0.500000000000000   0.750000000000000
   0.250000000000000   0.500000000000000   0.750000000000000
   0.500000000000000   0.500000000000000   0.750000000000000
   0.750000000000000   0.500000000000000   0.750000000000000
   0.000000000000000   0.750000000000000   0.750000000000000
   0.250000000000000   0.750000000000000   0.750000000000000
   0.500000000000000   0.750000000000000   0.750000000000000
   0.750000000000000   0.750000000000000   0.750000000000000
