 H  O 
 1.0000000000000000
     7.6780929999999996    0.0000000000000000    0.0000000000000000
     3.8390460000000002    6.6494229999999996    0.0000000000000000
     0.0000000000000000    0.0000000000000000    7.2345670000000002
 H   O  
  24  12
Cartesian
  1.2868476389206611  2.2287834317069373  1.4316655717589521
  5.1024801244982125  0.0004844882268209  1.4314377501184865
  5.1270224022287225  4.4191307426548549  1.4315232687487258
  6.4144690583167421  6.6493378163079635  5.0490312111862297
 10.2280274591124218  4.4168899739948753  5.0517511664845438
  6.3903752756611931  2.2304426528179904  5.0491277869379809
  4.1909342054014225  0.0004376457217189  0.1491180514621500
  1.7431663372510517  3.0193645717270319  0.1515984836731904
  5.5827950729351050  3.6297741873058889  0.1491881394909872
  7.3257343254965930  6.6493178926610419  3.7666591293693967
  9.7736260831574420  3.6296319136058721  3.7680479259898272
  5.9346943736913236  3.0195046214591135  3.7667217689830812
  5.9296517609265953  5.8619631183262566  7.1201928473130200
  5.9292687324742364  7.4369891056831259  7.1201717253405237
  9.7901571748715899  5.2334534859182460  7.1291061914814060
  7.3149509543508708  2.2040856278241310  7.1203034950311963
  5.9507051847612731  1.4169680827688966  7.1202154462851306
  1.7272152189648404  1.4165871241397334  3.5030962155756593
  9.4268018792541408  7.4369650995586785  3.5028834072976038
  9.4266618010773549  5.8621199295169157  3.5031115632810752
  4.2023779315465788  4.4453238281821195  3.5032328862150290
  5.5662054733859376  5.2328046917392905  3.5028912996937591
  0.3633217549902474  2.2040580855049900  3.5031182523692035
 11.1540727122925958  4.4459803923778098  7.1291251437171095
  1.2751163287329936  2.2085577351446668  0.4504657957739710
  5.1261842049110662  0.0017496893122945  0.4501801662557506
  5.1162505781060315  4.4403427225113239  0.4502683930416678
  6.3905033521168040  6.6490262765892325  4.0676486725641290
  6.4021192971078031  2.2094729670555924  4.0677488173142011
  6.4093663025188130  6.6495859113423350  6.7824230405854733
  6.3930006649638971  2.2262368185059147  6.7825406510306854
  1.2856553991472759  2.2266848241817128  3.1665960472087979
  8.9468989882227863  6.6494085527210691  3.1652644489776702
  5.1240596776773186  4.4234096414023441  3.1653626493577023
 10.2409643242840804  4.4392003371689936  4.0710739081591658
 10.2309750076459629  4.4220469172392027  6.7949090728811905
