H O
1.0
  8.3681120000 0.0000000000 0.0000000000 
  0.0000000000 8.1568520000 0.0000000000 
  0.0000000000 0.0000000000 4.0914040000 
24 12
Direct
  0.5327190000 0.8367290000 0.4827050000 
  0.0917500000 0.2046200000 0.2616330000 
  0.7864760000 -0.0258540000 0.9070950000 
  0.7267500000 0.4682170000 0.3199870000 
  0.4115490000 0.5864610000 0.3636450000 
  0.8443400000 0.3269500000 0.3998320000 
  0.4082500000 0.7953800000 0.7616330000 
  0.0884510000 0.4135390000 0.8636450000 
  -0.0327190000 0.1632710000 -0.0172950000 
  0.7732500000 0.5317830000 0.8199870000 
  0.6556600000 0.6730500000 0.8998320000 
  1.0327190000 0.6632710000 0.5172950000 
  0.9115490000 -0.0864610000 0.6363550000 
  0.5884520000 1.0864610000 0.1363550000 
  0.9082500000 0.7046200000 0.2383670000 
  0.2732500000 0.9682170000 0.1800130000 
  0.1556600000 0.8269500000 0.1001680000 
  0.2864760000 0.5258540000 0.0929050000 
  0.7135240000 1.0258540000 0.4070950000 
  0.2267500000 0.0317830000 0.6800130000 
  0.3443400000 0.1730500000 0.6001680000 
  0.4672810000 0.3367290000 1.0172950000 
  0.2135240000 0.4741460000 0.5929050000 
  0.5917500000 0.2953800000 0.7383670000 
  0.0065520000 0.2531210000 0.1245720000 
  0.6402580000 0.9880400000 0.2320320000 
  0.2465370000 0.8884100000 0.0050460000 
  0.4934480000 0.7468790000 0.6245720000 
  0.2534630000 0.1115900000 0.5050460000 
  0.8597420000 0.0119600000 0.7320320000 
  0.7465370000 0.6115900000 0.9949540000 
  0.7534630000 0.3884100000 0.4949540000 
  0.9934480000 0.7531210000 0.3754280000 
  0.3597420000 0.4880400000 0.2679680000 
  0.1402580000 0.5119600000 0.7679680000 
  0.5065520000 0.2468790000 0.8754280000 
