H O                                     
   1.0000000000000000     
     4.4121733262067568    0.0000000000000000    0.0000000000000000
     0.0000000000000000    7.6634880949752553    0.0001243032473494
     0.0000000000000000    0.0001170212828762    7.1995921130067480
    16     8
Direct
  0.0000000000000000  0.5407220845666505  0.0198885747150915
  0.0000000000000000  0.6643169898827676  0.1999179185039158
  0.0000000000000000  0.4592799382830144  0.5198865178764480
  0.0000000000000000  0.3356761666602813  0.6999111051240845
  0.4999990847117601  0.1643172156105884  0.1999208555514642
  0.4999990847117601  0.0407255382696221  0.0198933812545808
  0.4999990847117601  0.8356695688624748  0.6999237541050638
  0.4999990847117601  0.9592740557354967  0.5198968235632565
  0.3184513355265226  0.7681136336238013  0.9837204820447121
  0.6815475203631769  0.7681136336238013  0.9837204820447121
  0.3184568008982993  0.2318861246002663  0.4837188604109399
  0.6815422838134533  0.2318861246002663  0.4837188604109399
  0.1815451214512125  0.2681154376102950  0.9837171249536550
  0.8184537344384810  0.2681154376102950  0.9837171249536550
  0.1815444702737954  0.7318897939694392  0.4837161574284184
  0.8184543856159046  0.7318897939694392  0.4837161574284184
  0.0000000000000000  0.6656938065869755  0.0607742510025692
  0.0000000000000000  0.3343051326678330  0.5607681524620171
  0.4999990847117601  0.1656959204420655  0.0607760287173637
  0.4999990847117601  0.8342987265895413  0.5607806058326680
  0.4999990847117601  0.8328906902663383  0.9364367994468514
  0.4999990847117601  0.1671212840622064  0.4364135329084324
  0.9999990847117601  0.3328865700852581  0.9364216725851086
  0.9999990847117601  0.6671210596289391  0.4364196457121191
