 H  O 
 1.0000000000000000
     7.6780929999999996    0.0000000000000000    0.0000000000000000
     3.8390460000000002    6.6494229999999996    0.0000000000000000
     0.0000000000000000    0.0000000000000000    7.2345670000000002
 H   O  
  24  12
Cartesian
  1.2868368726804436  2.2287826531556152  1.4321001186738747
  5.1013910919801324  0.0013436029672589  1.4317803092340802
  5.1283158476456894  4.4186314504109916  1.4318618555906155
  6.4149612925630359  6.6492876918027246  5.0488041583361536
 10.2279224106058120  4.4166924553524103  5.0527156097753387
  6.3900868307271415  2.2308254024603009  5.0488960854968701
  4.1914512119767116  0.0006801540958976  0.1482343816430607
  1.7429035814157388  3.0189087763537659  0.1507341684919724
  5.5827463652049056  3.6303471937081802  0.1482989452597173
  7.3252920402177928  6.6492555398129500  3.7658061649298520
  9.7738068403261007  3.6299480833775681  3.7681365430449358
  5.9348646269600129  3.0190875880373871  3.7658672698640525
  5.9292778571121820  5.8620335396933578  7.1200056784898322
  5.9287552880719545  7.4369436144079968  7.1199913655738669
  9.7896851707434731  5.2329744305962897  7.1283239991830030
  7.3151700168108462  2.2036198331606838  7.1201209601253668
  5.9509552778807828  1.4166782778449418  7.1200351558076154
  1.7270643213190533  1.4162858292359144  3.5033899654987555
  9.4273110947188261  7.4369069682944104  3.5028635776387249
  9.4272321014037352  5.8620749198703521  3.5036995732946155
  4.2020522204776531  4.4457970489825476  3.5038192882874957
  5.5658975921173646  5.2332224038660140  3.5028780373714570
  0.3631199461068547  2.2037783156608839  3.5034145908310519
 11.1539090269889201  4.4453289303401009  7.1283450437295626
  1.2753512897893586  2.2089994500459231  0.4511041495112247
  5.1258149876031434  0.0013654573779614  0.4508314188663948
  5.1161000161143910  4.4398325997256896  0.4509135753605880
  6.3908311321784605  6.6491297380915100  4.0678020675113169
  6.4020484865424381  2.2098053065925685  4.0678952718043266
  6.4090017255748721  6.6496377601010659  6.7833661890509758
  6.3932339193317489  2.2259316373732592  6.7834629042434713
  1.2851398007761352  2.2258098210417105  3.1670758298386952
  8.9476585928187387  6.6492769383259711  3.1661835379640899
  5.1235599095141158  4.4240203153171889  3.1662620099115166
 10.2407333388807142  4.4387689057702628  4.0718885803687037
 10.2321749358226946  4.4241082696533232  6.7908920103515031
