H O 
   1.00000000000000     
    10.5548693385330417    0.0000058980039804    0.0000003133324905
     0.0000039320800553    7.0364774363851890   -0.0000001759153965
     0.0000000174281243   -0.0000000357539034    3.3255328142960479
    24    12
Direct
  0.0523313001160165  0.0784965280883925  0.1736101953456491
  0.3856646334493450  0.0784965280883925  0.1736101953456491
  0.7189979667826808  0.0784965280883925  0.1736101953456491
  0.0523313001160165  0.5784965280883925  0.1736101953456491
  0.3856646334493450  0.5784965280883925  0.1736101953456491
  0.7189979667826808  0.5784965280883925  0.1736101953456491
  0.2810020355016928  0.4215034918248377  0.1736101544559468
  0.6143353688350285  0.4215034918248377  0.1736101544559468
  0.9476687021683642  0.4215034918248377  0.1736101544559468
  0.2810020355016928  0.9215034918248377  0.1736101544559468
  0.6143353688350285  0.9215034918248377  0.1736101544559468
  0.9476687021683642  0.9215034918248377  0.1736101544559468
  0.2189974864148215  0.1715041982227929  0.6736117744894123
  0.5523308197481572  0.1715041982227929  0.6736117744894123
  0.8856641530814929  0.1715041982227929  0.6736117744894123
  0.2189974864148215  0.6715041982227929  0.6736117744894123
  0.5523308197481572  0.6715041982227929  0.6736117744894123
  0.8856641530814929  0.6715041982227929  0.6736117744894123
  0.1143358723014526  0.3284957576530858  0.6736116010402675
  0.4476692056347883  0.3284957576530858  0.6736116010402675
  0.7810025389681169  0.3284957576530858  0.6736116010402675
  0.1143358723014526  0.8284957576530858  0.6736116010402675
  0.4476692056347883  0.8284957576530858  0.6736116010402675
  0.7810025389681169  0.8284957576530858  0.6736116010402675
  0.9999999804683597  0.0000000265409881  0.9927788033850574
  0.3333333138016954  0.0000000265409881  0.9927788033850574
  0.6666666471350240  0.0000000265409881  0.9927788033850574
  0.9999999804683597  0.5000000265409881  0.9927788033850574
  0.3333333138016954  0.5000000265409881  0.9927788033850574
  0.6666666471350240  0.5000000265409881  0.9927788033850574
  0.1666666585309855  0.2499999976699172  0.4927774712836594
  0.4999999918643141  0.2499999976699172  0.4927774712836594
  0.8333333251976498  0.2499999976699172  0.4927774712836594
  0.1666666585309855  0.7499999976699172  0.4927774712836594
  0.4999999918643141  0.7499999976699172  0.4927774712836594
  0.8333333251976498  0.7499999976699172  0.4927774712836594
