 H  O 
 1.0000000000000000
7.12333918 0.0 -3.04115415
-4.60506582 5.43464184 -3.04115415
0.0 0.0 7.74535894
  24  12
Cartesian
  6.4179440000000003 10.2480430000000009  8.6935219999999980
  6.6233660000000008 11.3038450000000026  9.8068299999999979
 12.7683710000000001  7.4035430000000009 12.0511329999999983
 13.0911720000000003  7.3198800000000013 13.5941349999999979
 10.6468699999999998  6.1388150000000010 15.7181639999999980
 11.9348799999999997  6.9781750000000011 15.8996309999999976
 11.2707410000000010  9.1448300000000007  8.6282219999999974
 12.5828120000000006  9.3371940000000002  7.7717469999999977
 14.8027650000000008  6.7086010000000016  7.5624269999999978
 14.8941400000000002  8.2338700000000014  7.3142819999999977
  9.0242830000000005  9.1279330000000023 12.0845649999999978
  7.9612280000000002 10.2533310000000011 11.7755999999999972
 15.7107030000000005  7.0558020000000017 13.2061079999999968
 15.5052810000000001  6.0000000000000009 12.0927999999999969
  9.3602750000000015  9.9003030000000010  9.8484969999999983
  9.0374750000000006  9.9839660000000023  8.3054949999999970
 11.4817770000000010 11.1650300000000016  6.1814649999999975
 10.1937660000000001 10.3256700000000023  5.9999999999999982
 10.8579059999999998  8.1590160000000012 13.2714079999999974
  9.5458350000000003  7.9666510000000015 14.1278819999999978
  7.3258820000000000 10.5952440000000010 14.3372029999999988
  7.2345070000000007  9.0699750000000012 14.5853479999999980
 13.1043640000000003  8.1759120000000003  9.8150639999999978
 14.1674190000000007  7.0505140000000015 10.1240299999999976
  6.0000000000000000 10.5838740000000016  9.5328409999999977
 12.3462240000000012  7.2895050000000010 12.9439559999999982
 11.6254910000000002  6.0371280000000009 15.8726849999999970
 12.1648710000000015  8.7490980000000018  8.4485499999999973
 14.6660070000000005  7.3894510000000011  6.8485239999999976
  8.5135230000000011  9.5541690000000017 11.3457849999999976
 16.1286470000000008  6.7199710000000010 12.3667889999999971
  9.7824230000000014 10.0143410000000017  8.9556739999999984
 10.5031550000000014 11.2667170000000016  6.0269449999999978
  9.9637760000000011  8.5547480000000018 13.4510789999999982
  7.4626400000000004  9.9143940000000015 15.0511049999999980
 13.6151240000000016  7.7496760000000009 10.5538449999999973
